32      4       
11      20      13      15      
0       0       0       0       0       2       2       3       
8       7       1       1       1       3       6       5       4       
3       7       1       1       2       3       7       6       5       
9       1       4       1       1       3       13      9       7       
6       1       1       1       9       7       23      19      15      13      12      11      9       
3       2       18      1       1       5       24      20      19      14      8       
1       1       1       2       1       11      24      23      22      21      19      18      15      14      12      11      10      
4       3       12      1       1       10      23      22      21      17      16      15      13      12      11      10      
7       5       8       1       7       8       24      21      20      18      17      16      14      10      
6       2       2       12      11      5       31      28      27      26      25      
5       1       5       6       1       5       31      28      27      26      25      
10      3       1       2       1       5       31      28      27      26      25      
9       1       1       1       4       5       31      28      27      26      25      
1       1       5       1       1       4       31      28      27      26      
10      1       1       5       7       4       28      27      26      25      
3       1       3       6       6       4       31      28      26      25      
4       1       6       1       1       4       28      27      26      25      
3       1       3       1       7       4       31      28      26      25      
6       1       8       5       1       4       31      30      27      26      
8       3       8       7       1       4       31      30      27      26      
8       1       13      10      3       3       27      26      25      
6       6       13      1       1       3       27      26      25      
2       4       1       1       3       2       28      26      
9       1       9       1       1       2       27      25      
4       3       6       5       1       2       30      29      
5       2       5       8       1       1       29      
4       1       6       1       9       1       29      
1       4       1       4       2       1       30      
10      9       1       5       9       1       32      
1       5       5       3       7       1       32      
10      4       1       3       12      1       32      
0       0       0       0       0       0       
